(set-logic QF_NRA)
(declare-fun skoX () Real)
(declare-fun skoY () Real)
(declare-fun pi () Real)
(assert (and (<= (+ (* (- 4665251694335455514716655777092730880) skoY) (* (- 559007298989804530384135782400) (* skoY skoY))) 0) (and (= (* 295147905179352825856 (* skoY skoY)) 1325421053866224634595698711821825) (and (= (+ (* skoY skoY) (* (- 15328072984) (* skoX skoX)) (* (- 129098541721) (* skoX skoX skoX skoX)) (* (- 21404723599) (* skoX skoX skoX skoX skoX skoX)) (* (- 1024027285) (* skoX skoX skoX skoX skoX skoX skoX skoX)) (* (- 15132100) (* skoX skoX skoX skoX skoX skoX skoX skoX skoX skoX))) 277555600) (and (not (<= (* 5000000 pi) 15707963)) (and (not (<= (* (- 10000000) pi) (- 31415927))) (<= (* (- 1) skoY) 0)))))))
(set-info :status sat)
(check-sat)
